
===== New CPLEX run =====
Instance: /home/yorig/tuner/mpils-tests/instances/miplib/easy/lotsize.mps
Config: /scratch/yorig/mpils-results-grid-ticks-10000/easy/16proc/seed-9/4_lotsize_seed-9_20260425_202405/iterated_local_search/run_3_worker_9/ils_config_16711154146406834851.prm
========================

Selected objective sense:  MINIMIZE
Selected objective  name:  R1921
Selected RHS        name:  B
Selected bound      name:  BOUND
Version identifier: 22.1.2.0 | 2024-11-26 | 0edbb82fd
CPXPARAM_Threads                                 8
CPXPARAM_Parallel                                1
CPXPARAM_MIP_Strategy_VariableSelect             3
CPXPARAM_MIP_Cuts_FlowCovers                     -1
CPXPARAM_MIP_Cuts_GUBCovers                      1
CPXPARAM_MIP_Limits_GomoryCand                   10
CPXPARAM_MIP_Cuts_Gomory                         1
CPXPARAM_Emphasis_MIP                            1
CPXPARAM_DetTimeLimit                            10000
Tried aggregator 1 time.
MIP Presolve eliminated 595 rows and 0 columns.
MIP Presolve added 1190 rows and 0 columns.
MIP Presolve modified 10 coefficients.
Reduced MIP has 2515 rows, 2985 columns, and 7755 nonzeros.
Reduced MIP has 1195 binaries, 0 generals, 0 SOSs, and 0 indicators.
Presolve time = 0.00 sec. (4.53 ticks)
Probing fixed 0 vars, tightened 5487 bounds.
Probing time = 0.01 sec. (18.38 ticks)
Tried aggregator 2 times.
Detecting symmetries...
MIP Presolve modified 1206 coefficients.
Aggregator did 10 substitutions.
Reduced MIP has 2505 rows, 2975 columns, and 7735 nonzeros.
Reduced MIP has 1195 binaries, 0 generals, 0 SOSs, and 0 indicators.
Presolve time = 0.00 sec. (6.66 ticks)
Probing fixed 0 vars, tightened 2401 bounds.
Probing time = 0.00 sec. (6.41 ticks)
Clique table members: 190.
MIP emphasis: integer feasibility.
MIP search method: dynamic search.
Parallel mode: deterministic, using up to 8 threads.
Root relaxation solution time = 0.01 sec. (9.71 ticks)

        Nodes                                         Cuts/
   Node  Left     Objective  IInf  Best Integer    Best Bound    ItCnt     Gap

      0     0   348385.3466   472                 348385.3466      882         
      0     0   434831.7808   552                   Cuts: 726     1571         
      0     0   608326.7180   574                   Cuts: 726     2178         
      0     0   725587.7203   651                   Cuts: 726     2765         
*     0+    0                       1.01740e+07   725587.7203            92.87%
*     0+    0                      7973370.0000   725587.7203            90.90%
Detecting symmetries...
      0     2   725587.7209   651  7973370.0000   725587.7203     2765   90.90%
Elapsed time = 0.34 sec. (477.77 ticks, tree = 0.02 MB, solutions = 2)
     26    20   784243.2341   643  7973370.0000   731127.1907     3083   90.83%
     85    80   753641.7064   638  7973370.0000   754286.8805     4910   90.54%
    148   122   870139.3847   611  7973370.0000   756380.2069     5428   90.51%
    216   186   797758.6761   610  7973370.0000   756380.2069     6193   90.51%
    286   258   769451.0723   605  7973370.0000   756380.2069     6786   90.51%
    349   328   880775.9407   592  7973370.0000   756380.2069     7489   90.51%
    414   371   780943.5994   602  7973370.0000   756380.2069     7969   90.51%
    474   422   841360.5166   577  7973370.0000   756380.2069     8469   90.51%
    526   471   786795.8212   599  7973370.0000   756380.2069     9037   90.51%
    768   698   863789.6258   565  7973370.0000   756380.2069    11790   90.51%
Elapsed time = 2.39 sec. (3599.77 ticks, tree = 1.09 MB, solutions = 2)
   1046   955   868423.3125   544  7973370.0000   756380.2069    15526   90.51%
   1349  1226   889529.8425   530  7973370.0000   756380.2069    18690   90.51%
   1638  1520   952925.4377   470  7973370.0000   756380.2069    22408   90.51%

Performing restart 1

Repeating presolve.
Tried aggregator 1 time.
MIP Presolve modified 1153 coefficients.
Reduced MIP has 2505 rows, 2975 columns, and 7735 nonzeros.
Reduced MIP has 1195 binaries, 0 generals, 0 SOSs, and 0 indicators.
Presolve time = 0.00 sec. (3.78 ticks)
Tried aggregator 1 time.
MIP Presolve modified 1016 coefficients.
Reduced MIP has 2505 rows, 2975 columns, and 7735 nonzeros.
Reduced MIP has 1195 binaries, 0 generals, 0 SOSs, and 0 indicators.
Presolve time = 0.00 sec. (5.12 ticks)
Represolve time = 0.02 sec. (18.63 ticks)
   1651     0   919055.1889   648  7973370.0000     Cuts: 726    27518   88.47%
   1651     0  1030441.6882   723  7973370.0000     Cuts: 726    28287   87.08%
   1651     0  1120024.5183   668  7973370.0000     Cuts: 726    28960   85.95%
   1651     2  1120024.5183   668  7973370.0000  1120024.5183    28960   85.95%
   1673    16  1206847.7680   753  7973370.0000  1128742.7314    30031   85.84%
   1730    67  1249129.8196   747  7973370.0000  1138864.3334    37997   85.72%

GUB cover cuts applied:  0
Clique cuts applied:  1
Cover cuts applied:  23
Implied bound cuts applied:  14
Mixed integer rounding cuts applied:  1582
Flow path cuts applied:  110
Multi commodity flow cuts applied:  87
Gomory fractional cuts applied:  2

Root node processing (before b&c):
  Real time             =    0.34 sec. (475.34 ticks)
Parallel b&c, 8 threads:
  Real time             =    6.44 sec. (9528.22 ticks)
  Sync time (average)   =    0.71 sec.
  Wait time (average)   =    0.00 sec.
                          ------------
Total (root+branch&cut) =    6.78 sec. (10003.56 ticks)
Gap: 85.72%
Upper bound: 7.97337e+06
Lower bound: 1.13886e+06
End of CPLEX run. Time: 6.77861 seconds

===== New CPLEX run =====
Instance: /home/yorig/tuner/mpils-tests/instances/miplib/easy/lotsize.mps
Config: /scratch/yorig/mpils-results-grid-ticks-10000/easy/16proc/seed-9/4_lotsize_seed-9_20260425_202405/iterated_local_search/run_3_worker_9/ils_config_5136919918618472890.prm
========================

Selected objective sense:  MINIMIZE
Selected objective  name:  R1921
Selected RHS        name:  B
Selected bound      name:  BOUND
Version identifier: 22.1.2.0 | 2024-11-26 | 0edbb82fd
CPXPARAM_Threads                                 8
CPXPARAM_Parallel                                1
CPXPARAM_MIP_Strategy_VariableSelect             3
CPXPARAM_MIP_Cuts_FlowCovers                     1
CPXPARAM_MIP_Cuts_GUBCovers                      1
CPXPARAM_MIP_Limits_GomoryCand                   10
CPXPARAM_MIP_Cuts_Gomory                         1
CPXPARAM_Emphasis_MIP                            1
CPXPARAM_DetTimeLimit                            10000
Tried aggregator 1 time.
MIP Presolve eliminated 595 rows and 0 columns.
MIP Presolve added 1190 rows and 0 columns.
MIP Presolve modified 10 coefficients.
Reduced MIP has 2515 rows, 2985 columns, and 7755 nonzeros.
Reduced MIP has 1195 binaries, 0 generals, 0 SOSs, and 0 indicators.
Presolve time = 0.00 sec. (4.53 ticks)
Probing fixed 0 vars, tightened 5487 bounds.
Probing time = 0.01 sec. (18.38 ticks)
Tried aggregator 2 times.
Detecting symmetries...
MIP Presolve modified 1206 coefficients.
Aggregator did 10 substitutions.
Reduced MIP has 2505 rows, 2975 columns, and 7735 nonzeros.
Reduced MIP has 1195 binaries, 0 generals, 0 SOSs, and 0 indicators.
Presolve time = 0.00 sec. (6.66 ticks)
Probing fixed 0 vars, tightened 2401 bounds.
Probing time = 0.00 sec. (6.41 ticks)
Clique table members: 190.
MIP emphasis: integer feasibility.
MIP search method: dynamic search.
Parallel mode: deterministic, using up to 8 threads.
Root relaxation solution time = 0.01 sec. (9.71 ticks)

        Nodes                                         Cuts/
   Node  Left     Objective  IInf  Best Integer    Best Bound    ItCnt     Gap

      0     0   348385.3466   472                 348385.3466      882         
      0     0   582561.7294   438                   Cuts: 726     1828         
      0     0   814794.4970   699                   Cuts: 726     2680         
      0     0   934396.2088   704                   Cuts: 726     3350         
*     0+    0                       1.01740e+07   934396.2088            90.82%
*     0+    0                      7973370.0000   934396.2088            88.28%
Detecting symmetries...
      0     2   934396.2088   704  7973370.0000   934396.2088     3350   88.28%
Elapsed time = 0.35 sec. (500.93 ticks, tree = 0.02 MB, solutions = 2)
     21    17   969804.3066   681  7973370.0000   953252.6755     4601   88.04%
     75    56   983901.8317   666  7973370.0000   973719.8783     5680   87.79%
    123   114  1035811.2042   668  7973370.0000   976742.5330     5909   87.75%
    177   152   993895.1167   650  7973370.0000   980872.5991     6161   87.70%
    230   198  1055319.5673   646  7973370.0000   980872.5991     6585   87.70%
    286   256  1055275.3557   638  7973370.0000   980872.5991     7183   87.70%
    338   312  1057955.5526   621  7973370.0000   980872.5991     7534   87.70%
    389   349  1045290.7198   605  7973370.0000   980872.5991     7819   87.70%
    440   397  1059544.8189   602  7973370.0000   980872.5991     8097   87.70%
    624   594  1075530.6085   576  7973370.0000   980872.5991     9503   87.70%
Elapsed time = 2.43 sec. (3629.61 ticks, tree = 3.03 MB, solutions = 2)
    824   722  1059145.4013   563  7973370.0000   980872.5991    10687   87.70%
   1049   994  1102842.9483   532  7973370.0000   980872.5991    13079   87.70%
   1286  1209  1141622.6082   522  7973370.0000   980872.5991    14660   87.70%
   1503  1433  1112944.8827   460  7973370.0000   980872.5991    16715   87.70%

Performing restart 1

Repeating presolve.
Tried aggregator 1 time.
MIP Presolve modified 1154 coefficients.
Reduced MIP has 2505 rows, 2975 columns, and 7735 nonzeros.
Reduced MIP has 1195 binaries, 0 generals, 0 SOSs, and 0 indicators.
Presolve time = 0.00 sec. (3.78 ticks)
Tried aggregator 1 time.
MIP Presolve modified 999 coefficients.
Reduced MIP has 2505 rows, 2975 columns, and 7735 nonzeros.
Reduced MIP has 1195 binaries, 0 generals, 0 SOSs, and 0 indicators.
Presolve time = 0.00 sec. (5.12 ticks)
Represolve time = 0.01 sec. (17.72 ticks)
   1657     0  1087323.8242   712  7973370.0000     Cuts: 726    22575   86.36%
   1657     0  1188794.7850   700  7973370.0000     Cuts: 726    23450   85.09%
   1657     0  1256712.1384   727  7973370.0000     Cuts: 726    24171   84.24%

GUB cover cuts applied:  0
Cover cuts applied:  21
Implied bound cuts applied:  15
Flow cuts applied:  453
Mixed integer rounding cuts applied:  658
Flow path cuts applied:  76
Multi commodity flow cuts applied:  24
Gomory fractional cuts applied:  0

Root node processing (before b&c):
  Real time             =    0.34 sec. (498.38 ticks)
Parallel b&c, 8 threads:
  Real time             =    6.28 sec. (9502.08 ticks)
  Sync time (average)   =    0.38 sec.
  Wait time (average)   =    0.00 sec.
                          ------------
Total (root+branch&cut) =    6.63 sec. (10000.46 ticks)
Gap: 84.24%
Upper bound: 7.97337e+06
Lower bound: 1.25671e+06
End of CPLEX run. Time: 6.6268 seconds

===== New CPLEX run =====
Instance: /home/yorig/tuner/mpils-tests/instances/miplib/easy/lotsize.mps
Config: /scratch/yorig/mpils-results-grid-ticks-10000/easy/16proc/seed-9/4_lotsize_seed-9_20260425_202405/iterated_local_search/run_3_worker_9/ils_config_11431269279870425214.prm
========================

Selected objective sense:  MINIMIZE
Selected objective  name:  R1921
Selected RHS        name:  B
Selected bound      name:  BOUND
Version identifier: 22.1.2.0 | 2024-11-26 | 0edbb82fd
CPXPARAM_Threads                                 8
CPXPARAM_Parallel                                1
CPXPARAM_MIP_Strategy_VariableSelect             3
CPXPARAM_MIP_Cuts_FlowCovers                     1
CPXPARAM_MIP_Cuts_GUBCovers                      1
CPXPARAM_MIP_Limits_GomoryCand                   10
CPXPARAM_MIP_Cuts_Gomory                         1
CPXPARAM_Emphasis_MIP                            3
CPXPARAM_DetTimeLimit                            10000
Tried aggregator 1 time.
MIP Presolve eliminated 595 rows and 0 columns.
MIP Presolve added 1190 rows and 0 columns.
MIP Presolve modified 10 coefficients.
Reduced MIP has 2515 rows, 2985 columns, and 7755 nonzeros.
Reduced MIP has 1195 binaries, 0 generals, 0 SOSs, and 0 indicators.
Presolve time = 0.00 sec. (4.53 ticks)
Probing fixed 0 vars, tightened 5487 bounds.
Probing time = 0.01 sec. (18.38 ticks)
Tried aggregator 2 times.
Detecting symmetries...
MIP Presolve modified 1206 coefficients.
Aggregator did 10 substitutions.
Reduced MIP has 2505 rows, 2975 columns, and 7735 nonzeros.
Reduced MIP has 1195 binaries, 0 generals, 0 SOSs, and 0 indicators.
Presolve time = 0.00 sec. (6.66 ticks)
Probing fixed 0 vars, tightened 2401 bounds.
Probing time = 0.00 sec. (6.41 ticks)
Clique table members: 160.
MIP emphasis: best bound.
MIP search method: dynamic search.
Parallel mode: deterministic, using up to 8 threads.
Root relaxation solution time = 0.01 sec. (9.68 ticks)

        Nodes                                         Cuts/
   Node  Left     Objective  IInf  Best Integer    Best Bound    ItCnt     Gap

      0     0   348385.3466   472                 348385.3466      882         
      0     0   585238.5236   446                   Cuts: 726     1837         
      0     0   812571.0118   720                   Cuts: 726     2725         
*     0+    0                       1.01740e+07   812571.0118            92.01%
*     0+    0                      7973370.0000   812571.0118            89.81%
      0     0   940979.8663   661  7973370.0000     Cuts: 726     3428   88.20%
      0     0  1029991.5350   758  7973370.0000     Cuts: 726     4115   87.08%
      0     0  1103707.2427   777  7973370.0000     Cuts: 726     4827   86.16%
Detecting symmetries...
*     0+    0                      1998995.0000  1103707.2427            44.79%
      0     0  1150821.9024   762  1998995.0000     Cuts: 726     5435   42.43%
*     0+    0                      1809723.0000  1150821.9024            36.41%
      0     0  1181250.3506   779  1809723.0000     Cuts: 718     5991   34.73%
      0     0  1212468.9511   813  1809723.0000     Cuts: 696     6595   33.00%
      0     0  1235502.3320   801  1809723.0000     Cuts: 642     7139   31.73%
      0     0  1251609.7154   806  1809723.0000     Cuts: 518     7588   30.84%
      0     0  1262331.8851   807  1809723.0000     Cuts: 456     7953   30.25%
      0     0  1270989.2327   840  1809723.0000     Cuts: 352     8290   29.77%
      0     0  1276665.3247   851  1809723.0000     Cuts: 280     8545   29.46%
      0     0  1281939.7454   863  1809723.0000     Cuts: 305     8798   29.16%
      0     0  1286803.7875   832  1809723.0000     Cuts: 307     9067   28.89%
      0     0  1289837.5474   845  1809723.0000     Cuts: 251     9292   28.73%
      0     0  1292077.2941   865  1809723.0000     Cuts: 241     9469   28.60%
      0     0  1295199.4879   866  1809723.0000     Cuts: 229     9699   28.43%
      0     0  1297568.8790   864  1809723.0000     Cuts: 165     9880   28.30%
      0     0  1299409.9157   850  1809723.0000     Cuts: 161    10033   28.20%
      0     0  1300846.1684   864  1809723.0000     Cuts: 125    10213   28.12%
      0     0  1301455.7171   873  1809723.0000     Cuts: 125    10332   28.09%
      0     0  1302807.4131   869  1809723.0000      Cuts: 74    10465   28.01%
*     0+    0                      1779673.0000  1302807.4131            26.80%
      0     0  1303720.7959   887  1779673.0000     Cuts: 118    10570   26.74%
      0     0  1304690.3367   885  1779673.0000     Cuts: 110    10658   26.69%
      0     0  1305567.3646   876  1779673.0000     Cuts: 110    10766   26.64%
      0     0  1306137.2147   863  1779673.0000     Cuts: 105    10857   26.61%
      0     0  1306756.6724   879  1779673.0000     Cuts: 121    10958   26.57%
      0     0  1308754.7217   880  1779673.0000      Cuts: 84    11090   26.46%
      0     0  1309782.3333   876  1779673.0000      Cuts: 82    11196   26.40%
      0     0  1310361.5061   876  1779673.0000     Cuts: 102    11280   26.37%
      0     0  1310952.8636   873  1779673.0000      Cuts: 78    11358   26.34%
      0     0  1311150.7272   886  1779673.0000      Cuts: 71    11403   26.33%
      0     0  1311526.8525   878  1779673.0000      Cuts: 41    11461   26.31%
Detecting symmetries...

GUB cover cuts applied:  0
Cover cuts applied:  11
Implied bound cuts applied:  23
Flow cuts applied:  451
Mixed integer rounding cuts applied:  1020
Flow path cuts applied:  24
Multi commodity flow cuts applied:  58
Lift and project cuts applied:  13
Gomory fractional cuts applied:  0

Root node processing (before b&c):
  Real time             =    5.57 sec. (10000.59 ticks)
Parallel b&c, 8 threads:
  Real time             =    0.00 sec. (0.00 ticks)
  Sync time (average)   =    0.00 sec.
  Wait time (average)   =    0.00 sec.
                          ------------
Total (root+branch&cut) =    5.57 sec. (10000.59 ticks)
Gap: 26.31%
Upper bound: 1.77967e+06
Lower bound: 1.31153e+06
End of CPLEX run. Time: 5.56971 seconds

===== New CPLEX run =====
Instance: /home/yorig/tuner/mpils-tests/instances/miplib/easy/lotsize.mps
Config: /scratch/yorig/mpils-results-grid-ticks-10000/easy/16proc/seed-9/4_lotsize_seed-9_20260425_202405/iterated_local_search/run_3_worker_9/ils_config_4895058960806309996.prm
========================

Selected objective sense:  MINIMIZE
Selected objective  name:  R1921
Selected RHS        name:  B
Selected bound      name:  BOUND
Version identifier: 22.1.2.0 | 2024-11-26 | 0edbb82fd
CPXPARAM_Threads                                 8
CPXPARAM_Parallel                                1
CPXPARAM_MIP_Strategy_VariableSelect             1
CPXPARAM_MIP_Cuts_FlowCovers                     1
CPXPARAM_MIP_Cuts_GUBCovers                      1
CPXPARAM_MIP_Limits_GomoryCand                   10
CPXPARAM_MIP_Cuts_Gomory                         1
CPXPARAM_Emphasis_MIP                            3
CPXPARAM_DetTimeLimit                            10000
Tried aggregator 1 time.
MIP Presolve eliminated 595 rows and 0 columns.
MIP Presolve added 1190 rows and 0 columns.
MIP Presolve modified 10 coefficients.
Reduced MIP has 2515 rows, 2985 columns, and 7755 nonzeros.
Reduced MIP has 1195 binaries, 0 generals, 0 SOSs, and 0 indicators.
Presolve time = 0.00 sec. (4.53 ticks)
Probing fixed 0 vars, tightened 5487 bounds.
Probing time = 0.01 sec. (18.38 ticks)
Tried aggregator 2 times.
Detecting symmetries...
MIP Presolve modified 1206 coefficients.
Aggregator did 10 substitutions.
Reduced MIP has 2505 rows, 2975 columns, and 7735 nonzeros.
Reduced MIP has 1195 binaries, 0 generals, 0 SOSs, and 0 indicators.
Presolve time = 0.00 sec. (6.66 ticks)
Probing fixed 0 vars, tightened 2401 bounds.
Probing time = 0.00 sec. (6.41 ticks)
Clique table members: 160.
MIP emphasis: best bound.
MIP search method: dynamic search.
Parallel mode: deterministic, using up to 8 threads.
Root relaxation solution time = 0.01 sec. (9.68 ticks)

        Nodes                                         Cuts/
   Node  Left     Objective  IInf  Best Integer    Best Bound    ItCnt     Gap

      0     0   348385.3466   472                 348385.3466      882         
      0     0   585238.5236   446                   Cuts: 726     1837         
      0     0   812571.0118   720                   Cuts: 726     2725         
*     0+    0                       1.01740e+07   812571.0118            92.01%
*     0+    0                      7973370.0000   812571.0118            89.81%
      0     0   940979.8663   661  7973370.0000     Cuts: 726     3428   88.20%
      0     0  1029991.5350   758  7973370.0000     Cuts: 726     4115   87.08%
*     0+    0                      2094309.0000  1029991.5350            50.82%
      0     0  1103707.2427   777  2094309.0000     Cuts: 726     4827   47.30%
Detecting symmetries...
*     0+    0                      1852219.0000  1103707.2427            40.41%
      0     0  1151447.0885   768  1852219.0000     Cuts: 726     5438   37.83%
      0     0  1180240.1077   787  1852219.0000     Cuts: 726     6039   36.28%
      0     0  1210242.0726   768  1852219.0000     Cuts: 657     6638   34.66%
      0     0  1226211.9532   795  1852219.0000     Cuts: 537     7159   33.80%
      0     0  1243633.5062   813  1852219.0000     Cuts: 459     7651   32.86%
      0     0  1254305.8214   825  1852219.0000     Cuts: 484     8082   32.28%
      0     0  1265111.5520   803  1852219.0000     Cuts: 393     8415   31.70%
      0     0  1271007.2743   804  1852219.0000     Cuts: 288     8712   31.38%
      0     0  1276061.0390   831  1852219.0000     Cuts: 248     9031   31.11%
      0     0  1280726.1930   829  1852219.0000     Cuts: 298     9315   30.85%
      0     0  1283388.0807   817  1852219.0000     Cuts: 230     9540   30.71%
      0     0  1287165.4415   851  1852219.0000     Cuts: 216     9804   30.51%
      0     0  1290252.0713   850  1852219.0000     Cuts: 219    10015   30.34%
      0     0  1292880.3690   865  1852219.0000     Cuts: 227    10243   30.20%
      0     0  1295223.7370   879  1852219.0000     Cuts: 209    10437   30.07%
      0     0  1297131.2135   852  1852219.0000     Cuts: 192    10632   29.97%
      0     0  1298693.0160   861  1852219.0000     Cuts: 154    10795   29.88%
      0     0  1299684.0931   878  1852219.0000     Cuts: 186    10944   29.83%
*     0+    0                      1834919.0000  1299684.0931            29.17%
      0     0  1301248.4761   859  1834919.0000     Cuts: 152    11088   29.08%
      0     0  1302157.8563   876  1834919.0000     Cuts: 107    11211   29.03%
      0     0  1302783.0498   860  1834919.0000      Cuts: 94    11334   29.00%
      0     0  1303171.4275   860  1834919.0000     Cuts: 113    11421   28.98%
      0     0  1303466.8738   877  1834919.0000      Cuts: 81    11496   28.96%
      0     0  1303638.5411   883  1834919.0000      Cuts: 49    11565   28.95%
*     0+    0                      1811905.0000  1303638.5411            28.05%
Detecting symmetries...
      0     2  1303638.5411   883  1811905.0000  1303638.5411    11565   28.05%
Elapsed time = 5.52 sec. (9716.58 ticks, tree = 0.02 MB, solutions = 6)
     14    15  1305970.6256   857  1811905.0000  1304388.8578    12991   28.01%

GUB cover cuts applied:  0
Cover cuts applied:  11
Implied bound cuts applied:  29
Flow cuts applied:  477
Mixed integer rounding cuts applied:  1088
Flow path cuts applied:  36
Multi commodity flow cuts applied:  58
Lift and project cuts applied:  12
Gomory fractional cuts applied:  0

Root node processing (before b&c):
  Real time             =    5.51 sec. (9708.75 ticks)
Parallel b&c, 8 threads:
  Real time             =    0.18 sec. (304.59 ticks)
  Sync time (average)   =    0.05 sec.
  Wait time (average)   =    0.00 sec.
                          ------------
Total (root+branch&cut) =    5.69 sec. (10013.33 ticks)
Gap: 28%
Upper bound: 1.8119e+06
Lower bound: 1.30466e+06
End of CPLEX run. Time: 5.68631 seconds

===== New CPLEX run =====
Instance: /home/yorig/tuner/mpils-tests/instances/miplib/easy/lotsize.mps
Config: /scratch/yorig/mpils-results-grid-ticks-10000/easy/16proc/seed-9/4_lotsize_seed-9_20260425_202405/iterated_local_search/run_3_worker_9/ils_config_367607664802935269.prm
========================

Selected objective sense:  MINIMIZE
Selected objective  name:  R1921
Selected RHS        name:  B
Selected bound      name:  BOUND
Version identifier: 22.1.2.0 | 2024-11-26 | 0edbb82fd
CPXPARAM_Threads                                 8
CPXPARAM_Parallel                                1
CPXPARAM_MIP_Cuts_Cliques                        -1
CPXPARAM_MIP_Strategy_VariableSelect             3
CPXPARAM_MIP_Cuts_FlowCovers                     1
CPXPARAM_MIP_Cuts_GUBCovers                      1
CPXPARAM_MIP_Limits_GomoryCand                   10
CPXPARAM_MIP_Cuts_Gomory                         1
CPXPARAM_Emphasis_MIP                            3
CPXPARAM_DetTimeLimit                            10000
Tried aggregator 1 time.
MIP Presolve eliminated 595 rows and 0 columns.
MIP Presolve added 1190 rows and 0 columns.
MIP Presolve modified 10 coefficients.
Reduced MIP has 2515 rows, 2985 columns, and 7755 nonzeros.
Reduced MIP has 1195 binaries, 0 generals, 0 SOSs, and 0 indicators.
Presolve time = 0.00 sec. (4.53 ticks)
Probing fixed 0 vars, tightened 5487 bounds.
Probing time = 0.01 sec. (18.38 ticks)
Tried aggregator 2 times.
Detecting symmetries...
MIP Presolve modified 1206 coefficients.
Aggregator did 10 substitutions.
Reduced MIP has 2505 rows, 2975 columns, and 7735 nonzeros.
Reduced MIP has 1195 binaries, 0 generals, 0 SOSs, and 0 indicators.
Presolve time = 0.00 sec. (6.66 ticks)
Probing fixed 0 vars, tightened 2401 bounds.
Probing time = 0.00 sec. (6.41 ticks)
Clique table members: 160.
MIP emphasis: best bound.
MIP search method: dynamic search.
Parallel mode: deterministic, using up to 8 threads.
Root relaxation solution time = 0.01 sec. (9.68 ticks)

        Nodes                                         Cuts/
   Node  Left     Objective  IInf  Best Integer    Best Bound    ItCnt     Gap

      0     0   348385.3466   472                 348385.3466      882         
      0     0   585238.5236   446                   Cuts: 726     1837         
      0     0   814691.3770   720                   Cuts: 726     2737         
*     0+    0                       1.01740e+07   814691.3770            91.99%
*     0+    0                      7973370.0000   814691.3770            89.78%
      0     0   944779.9986   679  7973370.0000     Cuts: 726     3423   88.15%
      0     0  1035879.0473   738  7973370.0000     Cuts: 726     4118   87.01%
      0     0  1106360.5169   743  7973370.0000     Cuts: 726     4785   86.12%
Detecting symmetries...
*     0+    0                      2112117.0000  1106360.5169            47.62%
      0     0  1151786.5695   770  2112117.0000     Cuts: 726     5381   45.47%
*     0+    0                      1809723.0000  1151786.5695            36.36%
      0     0  1186187.6326   795  1809723.0000     Cuts: 726     5989   34.45%
      0     0  1213416.3268   789  1809723.0000     Cuts: 721     6557   32.95%
      0     0  1230667.7505   776  1809723.0000     Cuts: 535     7019   32.00%
      0     0  1247190.6378   801  1809723.0000     Cuts: 421     7478   31.08%
      0     0  1259727.2167   816  1809723.0000     Cuts: 436     7924   30.39%
      0     0  1269236.9494   833  1809723.0000     Cuts: 407     8314   29.87%
      0     0  1275244.0470   842  1809723.0000     Cuts: 371     8625   29.53%
      0     0  1282556.6557   864  1809723.0000     Cuts: 313     8919   29.13%
      0     0  1285801.8557   844  1809723.0000     Cuts: 285     9107   28.95%
      0     0  1288317.5263   872  1809723.0000     Cuts: 182     9271   28.81%
      0     0  1290559.4412   887  1809723.0000     Cuts: 218     9457   28.69%
      0     0  1291955.3908   876  1809723.0000     Cuts: 147     9616   28.61%
      0     0  1293938.1324   884  1809723.0000     Cuts: 216     9779   28.50%
      0     0  1295149.1194   865  1809723.0000     Cuts: 109     9916   28.43%
      0     0  1296332.8066   870  1809723.0000     Cuts: 212    10049   28.37%
      0     0  1297174.6316   868  1809723.0000      Cuts: 88    10169   28.32%
      0     0  1299298.0537   859  1809723.0000     Cuts: 110    10291   28.20%
      0     0  1300185.3897   850  1809723.0000     Cuts: 111    10437   28.16%
      0     0  1300857.5162   853  1809723.0000     Cuts: 115    10552   28.12%
      0     0  1301247.3771   853  1809723.0000      Cuts: 86    10636   28.10%
      0     0  1301835.1705   852  1809723.0000      Cuts: 49    10693   28.06%
      0     0  1302424.0415   856  1809723.0000      Cuts: 72    10784   28.03%
      0     0  1302750.6264   868  1809723.0000     Cuts: 115    10870   28.01%
      0     0  1303100.4904   873  1809723.0000      Cuts: 60    10941   27.99%
*     0+    0                      1768360.0000  1303100.4904            26.31%
Detecting symmetries...

GUB cover cuts applied:  0
Cover cuts applied:  10
Implied bound cuts applied:  21
Flow cuts applied:  451
Mixed integer rounding cuts applied:  1043
Flow path cuts applied:  39
Multi commodity flow cuts applied:  63
Lift and project cuts applied:  9
Gomory fractional cuts applied:  0

Root node processing (before b&c):
  Real time             =    5.52 sec. (10000.51 ticks)
Parallel b&c, 8 threads:
  Real time             =    0.00 sec. (0.00 ticks)
  Sync time (average)   =    0.00 sec.
  Wait time (average)   =    0.00 sec.
                          ------------
Total (root+branch&cut) =    5.52 sec. (10000.51 ticks)
Gap: 26.31%
Upper bound: 1.76836e+06
Lower bound: 1.3031e+06
End of CPLEX run. Time: 5.52347 seconds
